<?xml version="1.0" encoding="UTF-8"?><osil xmlns="os.optimizationservices.org"   xmlns:xsi="http://www.w3.org/2001/XMLSchema-instance" xsi:schemaLocation="os.optimizationservices.org http://www.optimizationservices.org/schemas/2.0/OSiL.xsd" ><instanceHeader><name>cvxnonsep_psig40r</name></instanceHeader><instanceData><variables numberOfVariables="82"><var name="i1" type="I" lb="1" ub="10"/><var name="i2" type="I" lb="1" ub="10"/><var name="i3" type="I" lb="1" ub="10"/><var name="i4" type="I" lb="1" ub="10"/><var name="i5" type="I" lb="1" ub="10"/><var name="i6" type="I" lb="1" ub="10"/><var name="i7" type="I" lb="1" ub="10"/><var name="i8" type="I" lb="1" ub="10"/><var name="i9" type="I" lb="1" ub="10"/><var name="i10" type="I" lb="1" ub="10"/><var name="i11" type="I" lb="1" ub="10"/><var name="i12" type="I" lb="1" ub="10"/><var name="i13" type="I" lb="1" ub="10"/><var name="i14" type="I" lb="1" ub="10"/><var name="i15" type="I" lb="1" ub="10"/><var name="i16" type="I" lb="1" ub="10"/><var name="i17" type="I" lb="1" ub="10"/><var name="i18" type="I" lb="1" ub="10"/><var name="i19" type="I" lb="1" ub="10"/><var name="i20" type="I" lb="1" ub="10"/><var name="x21" lb="1" ub="10"/><var name="x22" lb="1" ub="10"/><var name="x23" lb="1" ub="10"/><var name="x24" lb="1" ub="10"/><var name="x25" lb="1" ub="10"/><var name="x26" lb="1" ub="10"/><var name="x27" lb="1" ub="10"/><var name="x28" lb="1" ub="10"/><var name="x29" lb="1" ub="10"/><var name="x30" lb="1" ub="10"/><var name="x31" lb="1" ub="10"/><var name="x32" lb="1" ub="10"/><var name="x33" lb="1" ub="10"/><var name="x34" lb="1" ub="10"/><var name="x35" lb="1" ub="10"/><var name="x36" lb="1" ub="10"/><var name="x37" lb="1" ub="10"/><var name="x38" lb="1" ub="10"/><var name="x39" lb="1" ub="10"/><var name="x40" lb="1" ub="10"/><var name="x42" lb="-INF"/><var name="x43" lb="-INF"/><var name="x44" lb="-INF"/><var name="x45" lb="-INF"/><var name="x46" lb="-INF"/><var name="x47" lb="-INF"/><var name="x48" lb="-INF"/><var name="x49" lb="-INF"/><var name="x50" lb="-INF"/><var name="x51" lb="-INF"/><var name="x52" lb="-INF"/><var name="x53" lb="-INF"/><var name="x54" lb="-INF"/><var name="x55" lb="-INF"/><var name="x56" lb="-INF"/><var name="x57" lb="-INF"/><var name="x58" lb="-INF"/><var name="x59" lb="-INF"/><var name="x60" lb="-INF"/><var name="x61" lb="-INF"/><var name="x62" lb="-INF"/><var name="x63" lb="-INF"/><var name="x64" lb="-INF"/><var name="x65" lb="-INF"/><var name="x66" lb="-INF"/><var name="x67" lb="-INF"/><var name="x68" lb="-INF"/><var name="x69" lb="-INF"/><var name="x70" lb="-INF"/><var name="x71" lb="-INF"/><var name="x72" lb="-INF"/><var name="x73" lb="-INF"/><var name="x74" lb="-INF"/><var name="x75" lb="-INF"/><var name="x76" lb="-INF"/><var name="x77" lb="-INF"/><var name="x78" lb="-INF"/><var name="x79" lb="-INF"/><var name="x80" lb="-INF"/><var name="x81" lb="-INF"/><var name="x82" lb="-INF"/><var name="x83" lb="1.e-9"/></variables><objectives numberOfObjectives="1"><obj maxOrMin="min" weight="1" name="defObj_objvar" numberOfObjCoef="41"><coef idx="0">1</coef><coef idx="1">1</coef><coef idx="2">1</coef><coef idx="3">1</coef><coef idx="4">1</coef><coef idx="5">1</coef><coef idx="6">1</coef><coef idx="7">1</coef><coef idx="8">1</coef><coef idx="9">1</coef><coef idx="10">1</coef><coef idx="11">1</coef><coef idx="12">1</coef><coef idx="13">1</coef><coef idx="14">1</coef><coef idx="15">1</coef><coef idx="16">1</coef><coef idx="17">1</coef><coef idx="18">1</coef><coef idx="19">1</coef><coef idx="20">1</coef><coef idx="21">1</coef><coef idx="22">1</coef><coef idx="23">1</coef><coef idx="24">1</coef><coef idx="25">1</coef><coef idx="26">1</coef><coef idx="27">1</coef><coef idx="28">1</coef><coef idx="29">1</coef><coef idx="30">1</coef><coef idx="31">1</coef><coef idx="32">1</coef><coef idx="33">1</coef><coef idx="34">1</coef><coef idx="35">1</coef><coef idx="36">1</coef><coef idx="37">1</coef><coef idx="38">1</coef><coef idx="39">1</coef><coef idx="81">40000</coef></obj></objectives><constraints numberOfConstraints="42"><con name="e2" ub="0"/><con name="e3" ub="0"/><con name="e4" ub="0"/><con name="e5" ub="0"/><con name="e6" ub="0"/><con name="e7" ub="0"/><con name="e8" ub="0"/><con name="e9" ub="0"/><con name="e10" ub="0"/><con name="e11" ub="0"/><con name="e12" ub="0"/><con name="e13" ub="0"/><con name="e14" ub="0"/><con name="e15" ub="0"/><con name="e16" ub="0"/><con name="e17" ub="0"/><con name="e18" ub="0"/><con name="e19" ub="0"/><con name="e20" ub="0"/><con name="e21" ub="0"/><con name="e22" ub="0"/><con name="e23" ub="0"/><con name="e24" ub="0"/><con name="e25" ub="0"/><con name="e26" ub="0"/><con name="e27" ub="0"/><con name="e28" ub="0"/><con name="e29" ub="0"/><con name="e30" ub="0"/><con name="e31" ub="0"/><con name="e32" ub="0"/><con name="e33" ub="0"/><con name="e34" ub="0"/><con name="e35" ub="0"/><con name="e36" ub="0"/><con name="e37" ub="0"/><con name="e38" ub="0"/><con name="e39" ub="0"/><con name="e40" ub="0"/><con name="e41" ub="0"/><con name="e42" ub="0"/><con name="e43" ub="0"/></constraints><linearConstraintCoefficients numberOfValues="82"><start><el>0</el><el mult="42" incr="1">41</el></start><colIdx><el mult="41" incr="1">40</el><el mult="41" incr="1">40</el></colIdx><value><el mult="41">1</el><el mult="41">-1</el></value></linearConstraintCoefficients><nonlinearExpressions  numberOfNonlinearExpressions="41"><nl idx="1"><negate><product><number value="1.5e-2"/><ln><variable idx="0"/></ln></product></negate></nl><nl idx="2"><negate><product><number value=".37"/><ln><variable idx="1"/></ln></product></negate></nl><nl idx="3"><negate><product><number value=".25"/><ln><variable idx="2"/></ln></product></negate></nl><nl idx="4"><negate><product><number value=".24"/><ln><variable idx="3"/></ln></product></negate></nl><nl idx="5"><negate><product><number value=".45"/><ln><variable idx="4"/></ln></product></negate></nl><nl idx="6"><negate><product><number value=".305"/><ln><variable idx="5"/></ln></product></negate></nl><nl idx="7"><negate><product><number value=".31"/><ln><variable idx="6"/></ln></product></negate></nl><nl idx="8"><negate><product><number value=".43"/><ln><variable idx="7"/></ln></product></negate></nl><nl idx="9"><negate><product><number value=".405"/><ln><variable idx="8"/></ln></product></negate></nl><nl idx="10"><negate><product><number value=".29"/><ln><variable idx="9"/></ln></product></negate></nl><nl idx="11"><negate><product><number value="9.e-2"/><ln><variable idx="10"/></ln></product></negate></nl><nl idx="12"><negate><product><number value=".12"/><ln><variable idx="11"/></ln></product></negate></nl><nl idx="13"><negate><product><number value=".445"/><ln><variable idx="12"/></ln></product></negate></nl><nl idx="14"><negate><product><number value="1.5e-2"/><ln><variable idx="13"/></ln></product></negate></nl><nl idx="15"><negate><product><number value=".245"/><ln><variable idx="14"/></ln></product></negate></nl><nl idx="16"><negate><product><number value="8.5e-2"/><ln><variable idx="15"/></ln></product></negate></nl><nl idx="17"><negate><product><number value=".49"/><ln><variable idx="16"/></ln></product></negate></nl><nl idx="18"><negate><product><number value=".355"/><ln><variable idx="17"/></ln></product></negate></nl><nl idx="19"><negate><product><number value=".25"/><ln><variable idx="18"/></ln></product></negate></nl><nl idx="20"><negate><product><number value=".235"/><ln><variable idx="19"/></ln></product></negate></nl><nl idx="21"><negate><product><number value="3.e-2"/><ln><variable idx="20"/></ln></product></negate></nl><nl idx="22"><negate><product><number value=".34"/><ln><variable idx="21"/></ln></product></negate></nl><nl idx="23"><negate><product><number value="2.e-2"/><ln><variable idx="22"/></ln></product></negate></nl><nl idx="24"><negate><product><number value="3.5e-2"/><ln><variable idx="23"/></ln></product></negate></nl><nl idx="25"><negate><product><number value=".26"/><ln><variable idx="24"/></ln></product></negate></nl><nl idx="26"><negate><product><number value="5.e-2"/><ln><variable idx="25"/></ln></product></negate></nl><nl idx="27"><negate><product><number value=".41"/><ln><variable idx="26"/></ln></product></negate></nl><nl idx="28"><negate><product><number value=".41"/><ln><variable idx="27"/></ln></product></negate></nl><nl idx="29"><negate><product><number value=".36"/><ln><variable idx="28"/></ln></product></negate></nl><nl idx="30"><negate><product><number value="7.5e-2"/><ln><variable idx="29"/></ln></product></negate></nl><nl idx="31"><negate><product><number value=".36"/><ln><variable idx="30"/></ln></product></negate></nl><nl idx="32"><negate><product><number value=".33"/><ln><variable idx="31"/></ln></product></negate></nl><nl idx="33"><negate><product><number value=".26"/><ln><variable idx="32"/></ln></product></negate></nl><nl idx="34"><negate><product><number value=".485"/><ln><variable idx="33"/></ln></product></negate></nl><nl idx="35"><negate><product><number value=".4"/><ln><variable idx="34"/></ln></product></negate></nl><nl idx="36"><negate><product><number value=".225"/><ln><variable idx="35"/></ln></product></negate></nl><nl idx="37"><negate><product><number value=".215"/><ln><variable idx="36"/></ln></product></negate></nl><nl idx="38"><negate><product><number value=".415"/><ln><variable idx="37"/></ln></product></negate></nl><nl idx="39"><negate><product><number value="4.e-2"/><ln><variable idx="38"/></ln></product></negate></nl><nl idx="40"><negate><product><number value="6.5e-2"/><ln><variable idx="39"/></ln></product></negate></nl><nl idx="41"><negate><ln><variable idx="81"/></ln></negate></nl></nonlinearExpressions></instanceData></osil>
